18
14 17
14 9
14 15
14 5
14 10
14 0
14 6
14 12
14 2
14 16
14 3
14 8
14 13
17 10
17 1
17 0
17 12
17 3
17 4
17 7
17 6
17 16
17 9
17 8
17 11
6 9
6 1
6 2
6 16
6 3
6 11
6 4
6 15
6 8
6 5
6 12
9 16
9 8
9 13
9 0
9 12
9 5
9 4
9 2
9 15
9 10
10 0
10 13
10 1
10 15
10 3
10 8
10 11
10 12
10 7
10 2
1 11
1 0
1 12
1 15
1 16
1 5
1 4
1 7
1 2
1 8
0 7
0 4
0 11
0 8
0 15
0 12
0 3
0 13
7 3
7 8
7 15
7 2
7 5
7 11
7 13
7 4
7 16
3 12
3 11
3 5
3 16
3 4
3 13
3 8
2 5
2 11
2 8
2 13
2 4
2 16
2 15
5 11
5 4
5 13
5 16
5 12
5 15
11 15
11 4
11 13
11 12
12 8
12 13
12 16
4 16
4 15
4 8
13 16
13 8
13 15
16 15
